param n := 249;
param c := 10000
param : V : p w :=
   0	  58	 401
   1	  49	 252
   2	  58	 347
   3	  60	 384
   4	  12	 258
   5	  15	 358
   6	   5	 451
   7	  65	 268
   8	  17	 281
   9	  30	 407
  10	  29	 292
  11	  39	 301
  12	  34	 405
  13	  73	 271
  14	  28	 324
  15	  86	 389
  16	   2	 292
  17	  28	 319
  18	  31	 430
  19	  21	 266
  20	  23	 304
  21	   6	 468
  22	  52	 259
  23	  66	 273
  24	  72	 460
  25	  93	 261
  26	  84	 279
  27	  31	 486
  28	  54	 250
  29	   9	 264
  30	  17	 406
  31	  25	 254
  32	  15	 340
  33	  51	 380
  34	  54	 307
  35	  50	 313
  36	  51	 450
  37	  84	 271
  38	  80	 279
  39	  26	 381
  40	  81	 275
  41	  97	 344
  42	  33	 411
  43	 100	 253
  44	  67	 336
  45	  63	 361
  46	   1	 264
  47	  30	 375
  48	  70	 430
  49	  64	 266
  50	  47	 304
  51	  73	 392
  52	  81	 261
  53	  64	 347
  54	  82	 419
  55	  25	 278
  56	  87	 303
  57	  72	 465
  58	  84	 258
  59	  69	 277
  60	  39	 495
  61	  85	 250
  62	  36	 255
  63	  93	 418
  64	  88	 277
  65	  41	 305
  66	  96	 377
  67	   7	 292
  68	  47	 331
  69	  82	 426
  70	  30	 260
  71	  67	 314
  72	  24	 412
  73	  94	 261
  74	   5	 327
  75	  23	 494
  76	  72	 250
  77	  57	 256
  78	  84	 379
  79	  16	 303
  80	  31	 318
  81	  32	 488
  82	  40	 254
  83	  78	 258
  84	  11	 380
  85	  25	 252
  86	  90	 368
  87	  17	 468
  88	 100	 261
  89	  78	 271
  90	  11	 354
  91	  10	 287
  92	   4	 359
  93	  79	 499
  94	  48	 250
  95	  57	 251
  96	  88	 443
  97	  97	 258
  98	  84	 299
  99	  29	 497
 100	   2	 251
 101	  86	 252
 102	  42	 395
 103	  81	 296
 104	  38	 309
 105	  26	 456
 106	  93	 261
 107	  42	 283
 108	  61	 371
 109	  14	 274
 110	  59	 355
 111	   5	 480
 112	  73	 254
 113	  22	 266
 114	  93	 471
 115	  66	 252
 116	  49	 277
 117	  25	 404
 118	  94	 255
 119	  52	 341
 120	   2	 468
 121	  83	 262
 122	  26	 270
 123	  67	 417
 124	  38	 287
 125	  36	 296
 126	  44	 425
 127	  42	 284
 128	   8	 291
 129	  94	 461
 130	  31	 255
 131	  94	 284
 132	  21	 488
 133	  15	 253
 134	  96	 259
 135	  24	 417
 136	  68	 259
 137	  82	 324
 138	  28	 440
 139	  76	 264
 140	  27	 296
 141	  84	 436
 142	  11	 260
 143	  89	 304
 144	  47	 374
 145	  41	 289
 146	  49	 337
 147	  11	 392
 148	  18	 278
 149	  32	 330
 150	  68	 489
 151	  78	 255
 152	  76	 256
 153	  24	 383
 154	  35	 267
 155	  17	 350
 156	  83	 415
 157	  68	 285
 158	  19	 300
 159	  26	 396
 160	  77	 269
 161	  12	 335
 162	  49	 472
 163	  17	 262
 164	  75	 266
 165	  93	 420
 166	  42	 259
 167	  67	 321
 168	  66	 498
 169	   1	 250
 170	  78	 252
 171	  13	 444
 172	  20	 253
 173	  83	 303
 174	  87	 433
 175	  34	 270
 176	  75	 297
 177	  31	 447
 178	  25	 262
 179	  10	 291
 180	   5	 355
 181	  86	 254
 182	  10	 391
 183	  49	 476
 184	  44	 258
 185	  83	 266
 186	  47	 462
 187	  28	 262
 188	  64	 276
 189	  99	 468
 190	  42	 254
 191	  56	 278
 192	  42	 377
 193	   2	 258
 194	  80	 365
 195	   7	 430
 196	  27	 266
 197	  52	 304
 198	  27	 449
 199	  64	 268
 200	  14	 283
 201	  69	 449
 202	  82	 256
 203	  94	 295
 204	  38	 468
 205	  79	 256
 206	  29	 276
 207	  96	 412
 208	  21	 253
 209	  22	 335
 210	  11	 498
 211	   7	 250
 212	  37	 252
 213	   9	 470
 214	  83	 259
 215	  30	 271
 216	   2	 376
 217	  66	 305
 218	  54	 319
 219	   2	 396
 220	  68	 282
 221	   2	 322
 222	   2	 419
 223	  61	 268
 224	  20	 313
 225	  65	 462
 226	  47	 254
 227	  78	 284
 228	  20	 370
 229	  68	 298
 230	  34	 332
 231	  72	 352
 232	  10	 283
 233	  98	 365
 234	  48	 363
 235	  12	 254
 236	  96	 383
 237	  66	 427
 238	  30	 284
 239	  51	 289
 240	  10	 470
 241	  24	 254
 242	  61	 276
 243	 100	 460
 244	  65	 260
 245	  73	 280
 246	   7	 397
 247	  16	 253
 248	  41	 350
;

set E :=
   0	   3
   0	  10
   0	  17
   0	  27
   0	  62
   0	  71
   0	  93
   0	  97
   0	 121
   0	 127
   0	 137
   0	 151
   0	 167
   0	 176
   0	 178
   0	 194
   0	 201
   0	 232
   1	   3
   1	  10
   1	  14
   1	  42
   1	  47
   1	  53
   1	  56
   1	  72
   1	  74
   1	  75
   1	  92
   1	 114
   1	 133
   1	 137
   1	 140
   1	 147
   1	 172
   1	 175
   1	 179
   1	 182
   1	 183
   1	 196
   1	 198
   1	 203
   1	 207
   1	 225
   1	 235
   1	 248
   2	  16
   2	  25
   2	  39
   2	  49
   2	  54
   2	  62
   2	  82
   2	  90
   2	 103
   2	 105
   2	 111
   2	 126
   2	 144
   2	 166
   2	 178
   2	 180
   2	 183
   2	 195
   2	 226
   2	 230
   2	 237
   2	 240
   3	  21
   3	  24
   3	  53
   3	  66
   3	  80
   3	  93
   3	 126
   3	 144
   3	 145
   3	 149
   3	 167
   3	 171
   3	 184
   3	 186
   3	 190
   3	 200
   3	 212
   3	 228
   3	 239
   4	   9
   4	  10
   4	  13
   4	  24
   4	  26
   4	  44
   4	  46
   4	  51
   4	  69
   4	  81
   4	  97
   4	 109
   4	 111
   4	 122
   4	 123
   4	 131
   4	 150
   4	 154
   4	 158
   4	 163
   4	 169
   4	 173
   4	 179
   4	 180
   4	 203
   4	 205
   4	 213
   4	 218
   4	 233
   4	 242
   5	   7
   5	  17
   5	  97
   5	 102
   5	 121
   5	 135
   5	 141
   5	 151
   5	 164
   5	 177
   5	 194
   5	 196
   5	 208
   5	 212
   5	 214
   5	 238
   5	 247
   6	  16
   6	  20
   6	  29
   6	  33
   6	  43
   6	  56
   6	  60
   6	  84
   6	  99
   6	 101
   6	 108
   6	 118
   6	 119
   6	 158
   6	 165
   6	 199
   6	 202
   6	 205
   6	 208
   6	 230
   6	 240
   7	  19
   7	  91
   7	  96
   7	 119
   7	 122
   7	 125
   7	 130
   7	 134
   7	 149
   7	 152
   7	 166
   7	 170
   7	 176
   7	 181
   7	 189
   7	 200
   8	  16
   8	  30
   8	  33
   8	  49
   8	  56
   8	  75
   8	  98
   8	 108
   8	 109
   8	 110
   8	 116
   8	 117
   8	 129
   8	 140
   8	 157
   8	 159
   8	 161
   8	 164
   8	 199
   8	 219
   8	 229
   8	 243
   8	 247
   9	  26
   9	  42
   9	  43
   9	  50
   9	  52
   9	  57
   9	  89
   9	 135
   9	 136
   9	 146
   9	 148
   9	 155
   9	 165
   9	 179
   9	 184
   9	 204
   9	 211
   9	 222
   9	 226
   9	 241
  10	  19
  10	  35
  10	  37
  10	  40
  10	  51
  10	  63
  10	  65
  10	  78
  10	  84
  10	  92
  10	 101
  10	 107
  10	 118
  10	 141
  10	 158
  10	 172
  10	 215
  10	 224
  10	 243
  11	  18
  11	  39
  11	  60
  11	  68
  11	 101
  11	 110
  11	 115
  11	 117
  11	 120
  11	 126
  11	 127
  11	 139
  11	 147
  11	 149
  11	 167
  11	 181
  11	 186
  11	 222
  11	 230
  12	  17
  12	  32
  12	  36
  12	  69
  12	  73
  12	  83
  12	  86
  12	 106
  12	 141
  12	 145
  12	 155
  12	 156
  12	 160
  12	 174
  12	 186
  12	 195
  12	 215
  12	 219
  12	 224
  12	 232
  12	 239
  12	 248
  13	  15
  13	  28
  13	  34
  13	  36
  13	  47
  13	  51
  13	  69
  13	  88
  13	 121
  13	 123
  13	 128
  13	 133
  13	 135
  13	 154
  13	 155
  13	 156
  13	 202
  13	 222
  13	 224
  13	 226
  13	 232
  13	 237
  14	  25
  14	  28
  14	  32
  14	  48
  14	  69
  14	  78
  14	  81
  14	  86
  14	  88
  14	  97
  14	 112
  14	 117
  14	 122
  14	 133
  14	 148
  14	 152
  14	 181
  14	 182
  14	 192
  14	 195
  14	 204
  14	 215
  14	 217
  14	 230
  14	 247
  15	  16
  15	  18
  15	  39
  15	  48
  15	  64
  15	  65
  15	  86
  15	  91
  15	 114
  15	 117
  15	 120
  15	 130
  15	 141
  15	 164
  15	 176
  15	 178
  15	 198
  15	 210
  15	 217
  16	  68
  16	  70
  16	  71
  16	  81
  16	  97
  16	  99
  16	 103
  16	 116
  16	 119
  16	 127
  16	 133
  16	 163
  16	 174
  16	 186
  16	 192
  16	 193
  16	 199
  16	 202
  16	 208
  16	 218
  16	 238
  17	  31
  17	  32
  17	  48
  17	  61
  17	 106
  17	 115
  17	 126
  17	 133
  17	 135
  17	 163
  17	 184
  17	 187
  17	 194
  17	 207
  17	 223
  17	 239
  18	  24
  18	  28
  18	  43
  18	  50
  18	  51
  18	  69
  18	  71
  18	  96
  18	 113
  18	 114
  18	 119
  18	 149
  18	 151
  18	 154
  18	 188
  18	 189
  18	 192
  18	 195
  18	 199
  18	 223
  18	 246
  19	  25
  19	  34
  19	  35
  19	  38
  19	  86
  19	 101
  19	 102
  19	 104
  19	 121
  19	 129
  19	 136
  19	 142
  19	 175
  19	 203
  19	 212
  19	 219
  19	 223
  19	 228
  19	 242
  20	  21
  20	  36
  20	  54
  20	  56
  20	  64
  20	  67
  20	  71
  20	  80
  20	  83
  20	  85
  20	  89
  20	  94
  20	 100
  20	 114
  20	 133
  20	 136
  20	 164
  20	 172
  20	 177
  20	 200
  20	 208
  20	 235
  20	 240
  20	 242
  21	  35
  21	  45
  21	  57
  21	  58
  21	  60
  21	  72
  21	  75
  21	  78
  21	 133
  21	 137
  21	 138
  21	 141
  21	 155
  21	 164
  21	 166
  21	 172
  21	 179
  21	 187
  21	 205
  21	 210
  21	 212
  21	 225
  21	 232
  21	 240
  21	 242
  21	 243
  21	 247
  22	  30
  22	  32
  22	  43
  22	  52
  22	  53
  22	  60
  22	  72
  22	  91
  22	  94
  22	  98
  22	 100
  22	 125
  22	 153
  22	 159
  22	 161
  22	 171
  22	 201
  22	 210
  22	 215
  22	 228
  22	 241
  22	 243
  22	 248
  23	  24
  23	  25
  23	  50
  23	  52
  23	  58
  23	  66
  23	  98
  23	 109
  23	 121
  23	 129
  23	 147
  23	 166
  23	 170
  23	 173
  23	 179
  23	 182
  23	 189
  23	 200
  23	 211
  23	 212
  23	 213
  23	 218
  23	 221
  23	 230
  23	 237
  23	 244
  24	  25
  24	  26
  24	  33
  24	  45
  24	  48
  24	  54
  24	  62
  24	  64
  24	  69
  24	  72
  24	  76
  24	  86
  24	  96
  24	 106
  24	 122
  24	 133
  24	 136
  24	 143
  24	 145
  24	 146
  24	 152
  24	 170
  24	 172
  24	 190
  24	 196
  24	 198
  24	 209
  24	 212
  24	 229
  25	  35
  25	  43
  25	  49
  25	  54
  25	  70
  25	  79
  25	  89
  25	  93
  25	 103
  25	 107
  25	 115
  25	 117
  25	 119
  25	 132
  25	 141
  25	 146
  25	 170
  25	 177
  25	 183
  25	 185
  25	 187
  25	 193
  25	 195
  25	 200
  25	 213
  25	 216
  25	 225
  25	 231
  25	 245
  26	  27
  26	  29
  26	  39
  26	  46
  26	  78
  26	  90
  26	  94
  26	  96
  26	 103
  26	 105
  26	 106
  26	 111
  26	 117
  26	 128
  26	 135
  26	 138
  26	 142
  26	 160
  26	 162
  26	 168
  26	 169
  26	 174
  26	 187
  26	 192
  26	 193
  26	 200
  26	 205
  26	 222
  26	 227
  26	 234
  26	 242
  27	  42
  27	  72
  27	  78
  27	  84
  27	  87
  27	  94
  27	 118
  27	 119
  27	 121
  27	 122
  27	 124
  27	 161
  27	 162
  27	 174
  27	 180
  27	 190
  27	 238
  27	 242
  28	  31
  28	  36
  28	  38
  28	  42
  28	  51
  28	  62
  28	  63
  28	  67
  28	  69
  28	  72
  28	  84
  28	 110
  28	 113
  28	 116
  28	 118
  28	 119
  28	 122
  28	 128
  28	 167
  28	 185
  28	 186
  28	 192
  28	 195
  28	 199
  28	 215
  28	 221
  28	 224
  28	 230
  28	 237
  29	  34
  29	  35
  29	  47
  29	  55
  29	  72
  29	  88
  29	  90
  29	 100
  29	 110
  29	 112
  29	 124
  29	 125
  29	 127
  29	 131
  29	 140
  29	 149
  29	 150
  29	 156
  29	 169
  29	 200
  29	 218
  29	 225
  29	 229
  29	 246
  30	  42
  30	  44
  30	  73
  30	  76
  30	  85
  30	  92
  30	  93
  30	 126
  30	 130
  30	 143
  30	 146
  30	 164
  30	 172
  30	 175
  30	 193
  30	 199
  30	 211
  30	 216
  30	 221
  30	 225
  30	 235
  31	  60
  31	  67
  31	  71
  31	  92
  31	  96
  31	 100
  31	 120
  31	 132
  31	 159
  31	 161
  31	 171
  31	 173
  31	 178
  31	 191
  31	 195
  31	 196
  31	 212
  31	 236
  31	 238
  32	  35
  32	  50
  32	  75
  32	  80
  32	  88
  32	 102
  32	 116
  32	 129
  32	 139
  32	 164
  32	 181
  32	 186
  32	 205
  32	 207
  32	 227
  32	 229
  32	 243
  33	  41
  33	  65
  33	  85
  33	  94
  33	 102
  33	 105
  33	 108
  33	 115
  33	 129
  33	 137
  33	 146
  33	 156
  33	 157
  33	 166
  33	 184
  33	 186
  33	 192
  33	 203
  33	 219
  33	 233
  33	 239
  34	  35
  34	  38
  34	  39
  34	  45
  34	  52
  34	  54
  34	  60
  34	  71
  34	  72
  34	  91
  34	 111
  34	 121
  34	 130
  34	 131
  34	 154
  34	 181
  34	 188
  34	 189
  34	 194
  34	 196
  34	 211
  34	 213
  34	 232
  35	  57
  35	  59
  35	  65
  35	  70
  35	 100
  35	 123
  35	 138
  35	 139
  35	 170
  35	 186
  35	 203
  35	 207
  35	 216
  35	 217
  35	 224
  35	 226
  36	  45
  36	  47
  36	  50
  36	  59
  36	  68
  36	  75
  36	  83
  36	  84
  36	  94
  36	 110
  36	 117
  36	 120
  36	 121
  36	 135
  36	 151
  36	 165
  36	 183
  36	 235
  36	 242
  37	  41
  37	  46
  37	  50
  37	  55
  37	  79
  37	 106
  37	 122
  37	 130
  37	 170
  37	 173
  37	 194
  37	 196
  37	 211
  37	 221
  37	 231
  37	 240
  38	  46
  38	  48
  38	  59
  38	  68
  38	 114
  38	 115
  38	 118
  38	 123
  38	 140
  38	 146
  38	 166
  38	 169
  38	 173
  38	 177
  38	 179
  38	 187
  38	 189
  38	 204
  38	 207
  38	 209
  38	 223
  38	 227
  38	 230
  39	  65
  39	  81
  39	  90
  39	  92
  39	 134
  39	 161
  39	 174
  39	 179
  39	 191
  39	 195
  39	 198
  39	 203
  39	 215
  39	 223
  39	 238
  39	 242
  40	  49
  40	  67
  40	  77
  40	  87
  40	 109
  40	 138
  40	 143
  40	 171
  40	 183
  40	 187
  40	 201
  40	 202
  40	 207
  40	 228
  40	 238
  40	 247
  41	  55
  41	  61
  41	  62
  41	  87
  41	 100
  41	 105
  41	 107
  41	 122
  41	 133
  41	 137
  41	 138
  41	 142
  41	 147
  41	 155
  41	 157
  41	 161
  41	 169
  41	 170
  41	 177
  41	 190
  41	 195
  41	 202
  41	 203
  41	 204
  41	 218
  41	 219
  41	 222
  41	 240
  42	  58
  42	  61
  42	  64
  42	  74
  42	  83
  42	  87
  42	  95
  42	  96
  42	 103
  42	 117
  42	 124
  42	 134
  42	 173
  42	 175
  42	 176
  42	 181
  42	 203
  42	 206
  42	 215
  42	 231
  42	 236
  42	 245
  43	  53
  43	  56
  43	  89
  43	 106
  43	 115
  43	 123
  43	 124
  43	 147
  43	 152
  43	 158
  43	 162
  43	 177
  43	 199
  43	 201
  43	 204
  43	 210
  43	 228
  43	 235
  43	 242
  43	 243
  44	  49
  44	  56
  44	  63
  44	  90
  44	  96
  44	 103
  44	 126
  44	 129
  44	 137
  44	 141
  44	 149
  44	 165
  44	 169
  44	 172
  44	 180
  44	 191
  44	 196
  44	 203
  44	 206
  44	 212
  44	 213
  44	 214
  44	 230
  44	 245
  45	  48
  45	  69
  45	 120
  45	 166
  45	 167
  45	 178
  45	 189
  45	 200
  45	 240
  45	 244
  45	 247
  45	 248
  46	  48
  46	  53
  46	  73
  46	  75
  46	  95
  46	 102
  46	 110
  46	 119
  46	 122
  46	 124
  46	 140
  46	 152
  46	 154
  46	 161
  46	 165
  46	 184
  46	 223
  47	  53
  47	  78
  47	 100
  47	 109
  47	 111
  47	 120
  47	 122
  47	 140
  47	 154
  47	 156
  47	 164
  47	 190
  47	 191
  47	 202
  47	 211
  47	 212
  47	 213
  47	 216
  47	 221
  47	 238
  47	 247
  48	  69
  48	  72
  48	  77
  48	  79
  48	  94
  48	  97
  48	 107
  48	 113
  48	 114
  48	 127
  48	 131
  48	 139
  48	 141
  48	 146
  48	 155
  48	 168
  48	 182
  48	 183
  48	 197
  48	 211
  48	 212
  48	 225
  48	 231
  48	 234
  48	 236
  48	 240
  48	 246
  49	  56
  49	  59
  49	  65
  49	  72
  49	  75
  49	  91
  49	 106
  49	 110
  49	 122
  49	 124
  49	 125
  49	 128
  49	 142
  49	 143
  49	 169
  49	 186
  49	 199
  49	 205
  49	 209
  49	 215
  49	 232
  49	 233
  49	 234
  49	 238
  50	  55
  50	  59
  50	  63
  50	  96
  50	 108
  50	 109
  50	 114
  50	 116
  50	 117
  50	 120
  50	 122
  50	 127
  50	 138
  50	 141
  50	 148
  50	 151
  50	 157
  50	 161
  50	 174
  50	 175
  50	 178
  50	 180
  50	 184
  50	 190
  50	 206
  50	 214
  50	 221
  50	 223
  50	 236
  51	  75
  51	  77
  51	  80
  51	  82
  51	  92
  51	  93
  51	 119
  51	 123
  51	 127
  51	 129
  51	 141
  51	 146
  51	 161
  51	 162
  51	 166
  51	 189
  51	 193
  51	 199
  51	 208
  51	 209
  51	 223
  51	 236
  51	 242
  52	  54
  52	  80
  52	  93
  52	 113
  52	 114
  52	 116
  52	 119
  52	 129
  52	 156
  52	 157
  52	 163
  52	 164
  52	 190
  52	 197
  52	 199
  52	 219
  52	 220
  52	 223
  53	  72
  53	  80
  53	  82
  53	 113
  53	 119
  53	 141
  53	 147
  53	 161
  53	 169
  53	 173
  53	 187
  53	 188
  53	 201
  53	 211
  53	 220
  53	 224
  53	 227
  53	 228
  53	 234
  53	 240
  53	 241
  53	 247
  54	  58
  54	  60
  54	  67
  54	  71
  54	  78
  54	  79
  54	  88
  54	 102
  54	 118
  54	 123
  54	 130
  54	 145
  54	 154
  54	 208
  54	 213
  54	 219
  54	 222
  54	 228
  55	  71
  55	  78
  55	  87
  55	 109
  55	 114
  55	 142
  55	 151
  55	 159
  55	 163
  55	 166
  55	 167
  55	 182
  55	 190
  55	 194
  55	 211
  55	 225
  55	 234
  55	 245
  56	  79
  56	  82
  56	  83
  56	  85
  56	  88
  56	  90
  56	 102
  56	 115
  56	 129
  56	 131
  56	 139
  56	 153
  56	 155
  56	 165
  56	 175
  56	 178
  56	 233
  56	 244
  56	 245
  57	  68
  57	  69
  57	  76
  57	  98
  57	 103
  57	 116
  57	 118
  57	 143
  57	 144
  57	 145
  57	 150
  57	 153
  57	 166
  57	 173
  57	 177
  57	 188
  57	 195
  57	 199
  57	 203
  57	 213
  57	 221
  57	 227
  57	 233
  57	 238
  57	 244
  57	 248
  58	  67
  58	  68
  58	  81
  58	  85
  58	  89
  58	  93
  58	  97
  58	 107
  58	 176
  58	 189
  58	 202
  58	 205
  58	 209
  58	 217
  58	 223
  58	 226
  58	 237
  58	 239
  58	 244
  59	  68
  59	  74
  59	  79
  59	  83
  59	  85
  59	 112
  59	 126
  59	 145
  59	 151
  59	 171
  59	 173
  59	 174
  59	 184
  59	 215
  59	 219
  59	 224
  59	 243
  60	  63
  60	  92
  60	  94
  60	  95
  60	 107
  60	 113
  60	 114
  60	 115
  60	 123
  60	 130
  60	 139
  60	 141
  60	 155
  60	 158
  60	 182
  60	 193
  60	 199
  60	 205
  60	 210
  60	 226
  60	 235
  60	 239
  60	 243
  61	  68
  61	  75
  61	  82
  61	  83
  61	 188
  61	 208
  61	 215
  61	 220
  61	 225
  61	 228
  62	  70
  62	  85
  62	  90
  62	 106
  62	 122
  62	 125
  62	 131
  62	 139
  62	 141
  62	 153
  62	 159
  62	 167
  62	 180
  62	 183
  62	 184
  62	 185
  62	 186
  62	 193
  62	 196
  62	 198
  62	 200
  62	 212
  63	  65
  63	  73
  63	  81
  63	 101
  63	 102
  63	 113
  63	 117
  63	 136
  63	 156
  63	 165
  63	 177
  63	 183
  63	 191
  63	 217
  63	 218
  63	 226
  63	 237
  64	  79
  64	  94
  64	  96
  64	  99
  64	 103
  64	 106
  64	 107
  64	 109
  64	 146
  64	 147
  64	 149
  64	 167
  64	 175
  64	 190
  64	 202
  64	 218
  64	 226
  64	 234
  64	 242
  64	 243
  65	  72
  65	  76
  65	  81
  65	 106
  65	 110
  65	 115
  65	 119
  65	 120
  65	 125
  65	 132
  65	 137
  65	 142
  65	 160
  65	 183
  65	 184
  65	 189
  65	 206
  65	 217
  65	 221
  66	  74
  66	 108
  66	 132
  66	 138
  66	 155
  66	 162
  66	 174
  66	 183
  66	 203
  66	 215
  66	 230
  67	  84
  67	  99
  67	 102
  67	 104
  67	 107
  67	 112
  67	 115
  67	 119
  67	 122
  67	 133
  67	 142
  67	 151
  67	 163
  67	 172
  67	 190
  67	 197
  67	 202
  67	 225
  67	 245
  67	 248
  68	  78
  68	 116
  68	 131
  68	 151
  68	 166
  68	 167
  68	 170
  68	 184
  68	 186
  68	 195
  68	 199
  68	 201
  68	 207
  68	 215
  68	 228
  69	  86
  69	  87
  69	 102
  69	 122
  69	 125
  69	 130
  69	 135
  69	 140
  69	 141
  69	 152
  69	 159
  69	 166
  69	 168
  69	 169
  69	 171
  69	 187
  69	 189
  69	 197
  69	 200
  69	 215
  69	 221
  69	 222
  69	 225
  69	 232
  69	 238
  69	 240
  69	 241
  69	 248
  70	  78
  70	  79
  70	  93
  70	 118
  70	 123
  70	 128
  70	 132
  70	 158
  70	 174
  70	 178
  70	 181
  70	 199
  70	 204
  70	 207
  70	 215
  70	 219
  70	 224
  70	 229
  71	  76
  71	  88
  71	 110
  71	 124
  71	 125
  71	 134
  71	 139
  71	 160
  71	 200
  71	 202
  71	 205
  71	 223
  71	 227
  71	 247
  71	 248
  72	  84
  72	  88
  72	  96
  72	 104
  72	 105
  72	 120
  72	 128
  72	 132
  72	 133
  72	 136
  72	 139
  72	 150
  72	 151
  72	 154
  72	 157
  72	 181
  72	 183
  72	 195
  72	 196
  72	 201
  72	 207
  72	 211
  72	 241
  73	  78
  73	  86
  73	  87
  73	  89
  73	  94
  73	  97
  73	 104
  73	 109
  73	 110
  73	 128
  73	 132
  73	 141
  73	 164
  73	 168
  73	 169
  73	 177
  73	 214
  73	 215
  73	 223
  73	 230
  73	 232
  73	 243
  73	 244
  73	 247
  74	  77
  74	 107
  74	 118
  74	 139
  74	 145
  74	 156
  74	 161
  74	 165
  74	 170
  74	 184
  74	 205
  74	 233
  74	 241
  74	 247
  75	  90
  75	  91
  75	  94
  75	 100
  75	 104
  75	 118
  75	 125
  75	 128
  75	 149
  75	 155
  75	 157
  75	 169
  75	 197
  75	 206
  76	  80
  76	  83
  76	  85
  76	  88
  76	  89
  76	  96
  76	 104
  76	 109
  76	 112
  76	 114
  76	 115
  76	 150
  76	 164
  76	 184
  76	 196
  76	 218
  76	 230
  76	 237
  76	 240
  76	 241
  77	  79
  77	 106
  77	 117
  77	 128
  77	 129
  77	 131
  77	 142
  77	 172
  77	 176
  77	 190
  77	 200
  77	 201
  77	 205
  77	 228
  77	 232
  77	 237
  77	 239
  77	 242
  77	 245
  77	 248
  78	  94
  78	 116
  78	 130
  78	 151
  78	 160
  78	 205
  78	 218
  78	 223
  78	 224
  78	 227
  78	 229
  78	 231
  78	 239
  79	  90
  79	  99
  79	 107
  79	 122
  79	 128
  79	 132
  79	 137
  79	 158
  79	 177
  79	 186
  79	 190
  79	 194
  79	 215
  79	 217
  79	 223
  80	  94
  80	 119
  80	 121
  80	 124
  80	 145
  80	 179
  80	 185
  80	 187
  80	 196
  80	 197
  80	 198
  80	 207
  80	 210
  80	 237
  81	  97
  81	 113
  81	 117
  81	 118
  81	 128
  81	 137
  81	 145
  81	 152
  81	 153
  81	 161
  81	 166
  81	 168
  81	 169
  81	 172
  81	 178
  81	 179
  81	 181
  81	 193
  81	 201
  81	 206
  81	 213
  81	 217
  81	 226
  82	  88
  82	  97
  82	 106
  82	 108
  82	 116
  82	 119
  82	 129
  82	 157
  82	 159
  82	 164
  82	 166
  82	 169
  82	 174
  82	 182
  82	 210
  82	 214
  82	 217
  82	 226
  83	  91
  83	  97
  83	 106
  83	 109
  83	 112
  83	 116
  83	 127
  83	 131
  83	 150
  83	 152
  83	 160
  83	 176
  83	 182
  83	 193
  83	 195
  83	 211
  83	 215
  83	 229
  83	 240
  83	 241
  83	 248
  84	  98
  84	 102
  84	 110
  84	 120
  84	 129
  84	 134
  84	 137
  84	 138
  84	 180
  84	 209
  84	 212
  84	 217
  84	 222
  84	 225
  84	 229
  84	 238
  85	  94
  85	  99
  85	 100
  85	 101
  85	 118
  85	 124
  85	 129
  85	 134
  85	 136
  85	 137
  85	 141
  85	 163
  85	 165
  85	 169
  85	 194
  85	 213
  85	 233
  85	 239
  85	 244
  86	  93
  86	 103
  86	 107
  86	 120
  86	 144
  86	 145
  86	 147
  86	 149
  86	 163
  86	 170
  86	 173
  86	 174
  86	 194
  86	 198
  86	 204
  86	 206
  86	 207
  86	 245
  86	 247
  87	  94
  87	  96
  87	  99
  87	 130
  87	 132
  87	 133
  87	 145
  87	 171
  87	 177
  87	 178
  87	 181
  87	 187
  87	 196
  87	 197
  87	 205
  87	 210
  87	 212
  87	 217
  87	 232
  87	 248
  88	  90
  88	  97
  88	 113
  88	 121
  88	 137
  88	 147
  88	 150
  88	 163
  88	 165
  88	 167
  88	 185
  88	 190
  88	 192
  88	 195
  88	 204
  88	 227
  88	 237
  88	 245
  88	 247
  89	  99
  89	 102
  89	 134
  89	 136
  89	 137
  89	 161
  89	 214
  89	 217
  89	 222
  89	 238
  89	 246
  90	 103
  90	 106
  90	 110
  90	 119
  90	 142
  90	 146
  90	 151
  90	 153
  90	 157
  90	 158
  90	 161
  90	 172
  90	 173
  90	 178
  90	 247
  91	 111
  91	 116
  91	 132
  91	 136
  91	 139
  91	 148
  91	 154
  91	 158
  91	 163
  91	 169
  91	 172
  91	 177
  91	 180
  91	 220
  91	 222
  91	 238
  92	 111
  92	 125
  92	 143
  92	 147
  92	 151
  92	 164
  92	 178
  92	 204
  92	 222
  92	 226
  92	 239
  93	 107
  93	 108
  93	 114
  93	 148
  93	 154
  93	 162
  93	 174
  93	 185
  93	 198
  93	 200
  93	 205
  93	 218
  93	 222
  93	 223
  93	 230
  94	 111
  94	 121
  94	 135
  94	 146
  94	 147
  94	 148
  94	 155
  94	 157
  94	 159
  94	 170
  94	 187
  94	 192
  94	 204
  94	 209
  94	 242
  95	 105
  95	 111
  95	 118
  95	 129
  95	 131
  95	 134
  95	 142
  95	 183
  95	 184
  95	 231
  95	 243
  95	 246
  96	 100
  96	 102
  96	 111
  96	 117
  96	 120
  96	 127
  96	 132
  96	 133
  96	 147
  96	 154
  96	 181
  96	 184
  96	 214
  96	 236
  96	 239
  97	 115
  97	 129
  97	 162
  97	 169
  97	 180
  97	 186
  97	 209
  97	 223
  97	 226
  97	 242
  98	 103
  98	 117
  98	 120
  98	 121
  98	 129
  98	 137
  98	 142
  98	 147
  98	 163
  98	 168
  98	 202
  98	 217
  98	 225
  98	 235
  98	 241
  99	 100
  99	 107
  99	 109
  99	 131
  99	 133
  99	 157
  99	 188
  99	 194
  99	 208
  99	 211
  99	 219
  99	 222
  99	 224
  99	 227
  99	 231
  99	 242
  99	 243
 100	 115
 100	 121
 100	 125
 100	 130
 100	 141
 100	 151
 100	 157
 100	 160
 100	 174
 100	 180
 100	 181
 100	 188
 100	 192
 100	 196
 100	 228
 101	 122
 101	 124
 101	 132
 101	 141
 101	 157
 101	 189
 101	 202
 101	 204
 101	 207
 101	 228
 101	 230
 101	 234
 101	 235
 101	 244
 102	 103
 102	 107
 102	 117
 102	 120
 102	 126
 102	 142
 102	 146
 102	 154
 102	 158
 102	 162
 102	 171
 102	 176
 102	 181
 102	 202
 102	 204
 102	 227
 102	 228
 103	 105
 103	 112
 103	 114
 103	 118
 103	 120
 103	 128
 103	 133
 103	 138
 103	 145
 103	 161
 103	 175
 103	 176
 103	 181
 103	 183
 103	 185
 103	 186
 103	 193
 103	 201
 103	 211
 103	 220
 103	 234
 104	 107
 104	 110
 104	 125
 104	 139
 104	 143
 104	 151
 104	 173
 104	 185
 104	 196
 104	 226
 104	 243
 104	 245
 105	 111
 105	 118
 105	 145
 105	 158
 105	 188
 105	 189
 105	 201
 105	 207
 105	 234
 106	 113
 106	 142
 106	 150
 106	 172
 106	 211
 106	 236
 107	 113
 107	 119
 107	 121
 107	 131
 107	 133
 107	 137
 107	 138
 107	 139
 107	 141
 107	 175
 107	 176
 107	 187
 107	 204
 107	 218
 107	 240
 107	 246
 108	 124
 108	 131
 108	 156
 108	 159
 108	 160
 108	 162
 108	 170
 108	 172
 108	 177
 108	 178
 108	 181
 108	 187
 108	 188
 108	 196
 108	 199
 108	 204
 108	 208
 108	 215
 108	 234
 108	 235
 108	 241
 109	 114
 109	 117
 109	 120
 109	 141
 109	 142
 109	 148
 109	 159
 109	 182
 109	 201
 109	 216
 109	 231
 109	 236
 110	 111
 110	 130
 110	 132
 110	 134
 110	 137
 110	 142
 110	 143
 110	 152
 110	 160
 110	 172
 110	 199
 110	 205
 110	 211
 110	 223
 110	 226
 110	 234
 110	 235
 110	 246
 111	 127
 111	 136
 111	 142
 111	 146
 111	 164
 111	 186
 111	 215
 111	 219
 111	 222
 111	 234
 111	 245
 112	 118
 112	 119
 112	 128
 112	 132
 112	 140
 112	 144
 112	 148
 112	 149
 112	 154
 112	 155
 112	 169
 112	 183
 112	 187
 112	 211
 112	 225
 112	 232
 112	 234
 112	 240
 112	 243
 112	 248
 113	 114
 113	 133
 113	 135
 113	 138
 113	 157
 113	 165
 113	 171
 113	 177
 113	 182
 113	 187
 113	 188
 113	 199
 113	 208
 113	 223
 113	 235
 113	 246
 114	 121
 114	 143
 114	 151
 114	 156
 114	 161
 114	 172
 114	 179
 114	 181
 114	 190
 114	 207
 114	 215
 114	 225
 114	 226
 114	 230
 114	 233
 114	 239
 114	 245
 115	 123
 115	 151
 115	 156
 115	 162
 115	 163
 115	 170
 115	 174
 115	 187
 115	 191
 115	 211
 115	 212
 115	 217
 115	 220
 115	 225
 115	 229
 115	 237
 115	 240
 115	 246
 115	 248
 116	 117
 116	 128
 116	 136
 116	 164
 116	 196
 116	 203
 116	 210
 117	 131
 117	 138
 117	 142
 117	 143
 117	 153
 117	 154
 117	 163
 117	 190
 117	 206
 117	 207
 117	 229
 117	 230
 117	 232
 117	 244
 117	 248
 118	 125
 118	 135
 118	 147
 118	 148
 118	 162
 118	 163
 118	 170
 118	 171
 118	 177
 118	 189
 118	 193
 118	 205
 118	 234
 118	 241
 119	 121
 119	 124
 119	 137
 119	 149
 119	 153
 119	 157
 119	 162
 119	 164
 119	 165
 119	 169
 119	 171
 119	 172
 119	 174
 119	 201
 119	 221
 119	 232
 119	 241
 120	 147
 120	 149
 120	 150
 120	 162
 120	 167
 120	 168
 120	 180
 120	 232
 121	 123
 121	 144
 121	 146
 121	 155
 121	 179
 121	 183
 121	 199
 121	 202
 121	 213
 121	 215
 121	 216
 121	 221
 122	 134
 122	 166
 122	 169
 122	 176
 122	 180
 122	 182
 122	 184
 122	 201
 122	 205
 122	 213
 122	 225
 122	 232
 122	 245
 123	 140
 123	 149
 123	 151
 123	 154
 123	 177
 123	 179
 123	 199
 123	 212
 123	 213
 123	 224
 123	 242
 123	 243
 123	 248
 124	 145
 124	 166
 124	 172
 124	 181
 124	 208
 124	 218
 124	 220
 124	 237
 124	 238
 125	 158
 125	 179
 125	 182
 125	 191
 125	 198
 125	 201
 125	 209
 125	 214
 125	 237
 125	 240
 125	 242
 126	 139
 126	 141
 126	 156
 126	 175
 126	 197
 126	 198
 126	 208
 126	 209
 126	 217
 126	 224
 126	 231
 126	 233
 126	 234
 126	 238
 126	 239
 127	 138
 127	 147
 127	 168
 127	 209
 127	 212
 127	 216
 127	 217
 127	 221
 127	 222
 127	 234
 127	 241
 127	 247
 128	 131
 128	 133
 128	 142
 128	 145
 128	 162
 128	 173
 128	 175
 128	 179
 128	 182
 128	 188
 128	 193
 128	 204
 128	 218
 128	 227
 128	 233
 128	 245
 129	 139
 129	 146
 129	 159
 129	 162
 129	 171
 129	 176
 129	 180
 129	 181
 129	 183
 129	 185
 129	 204
 129	 205
 129	 208
 129	 209
 129	 219
 130	 135
 130	 140
 130	 144
 130	 147
 130	 148
 130	 163
 130	 172
 130	 194
 130	 211
 130	 219
 130	 228
 130	 234
 130	 235
 130	 237
 130	 242
 130	 248
 131	 139
 131	 150
 131	 158
 131	 161
 131	 164
 131	 169
 131	 173
 131	 193
 131	 198
 131	 222
 131	 234
 131	 236
 131	 241
 132	 137
 132	 151
 132	 157
 132	 158
 132	 167
 132	 168
 132	 174
 132	 178
 132	 183
 132	 184
 132	 202
 132	 215
 132	 216
 132	 221
 132	 244
 132	 246
 133	 154
 133	 202
 133	 231
 133	 241
 134	 146
 134	 149
 134	 153
 134	 155
 134	 167
 134	 175
 134	 205
 134	 228
 134	 229
 134	 230
 134	 235
 134	 238
 135	 141
 135	 145
 135	 172
 135	 201
 135	 203
 135	 206
 135	 207
 135	 213
 135	 240
 135	 244
 136	 151
 136	 156
 136	 157
 136	 159
 136	 168
 136	 177
 136	 189
 136	 197
 136	 208
 136	 215
 137	 143
 137	 160
 137	 166
 137	 168
 137	 174
 137	 179
 137	 186
 137	 190
 137	 191
 137	 216
 137	 227
 137	 231
 138	 147
 138	 154
 138	 155
 138	 161
 138	 162
 138	 163
 138	 181
 138	 182
 138	 187
 138	 195
 138	 196
 138	 208
 138	 233
 138	 245
 138	 247
 139	 149
 139	 152
 139	 165
 139	 169
 139	 191
 139	 215
 139	 224
 139	 236
 139	 248
 140	 141
 140	 150
 140	 159
 140	 161
 140	 177
 140	 186
 140	 194
 140	 196
 140	 206
 140	 211
 140	 219
 140	 226
 140	 228
 140	 237
 141	 142
 141	 145
 141	 151
 141	 154
 141	 155
 141	 160
 141	 183
 141	 189
 141	 223
 141	 224
 141	 227
 141	 237
 141	 243
 142	 145
 142	 147
 142	 153
 142	 154
 142	 173
 142	 177
 142	 181
 142	 187
 142	 194
 142	 199
 142	 205
 142	 216
 142	 219
 143	 151
 143	 164
 143	 171
 143	 191
 143	 202
 143	 204
 143	 217
 143	 225
 143	 232
 143	 239
 144	 172
 144	 177
 144	 183
 144	 186
 144	 200
 144	 207
 144	 211
 144	 213
 144	 214
 144	 221
 144	 222
 144	 226
 144	 231
 144	 236
 144	 238
 145	 150
 145	 165
 145	 166
 145	 179
 145	 181
 145	 182
 145	 197
 145	 204
 145	 211
 145	 212
 145	 215
 145	 217
 145	 242
 145	 243
 146	 155
 146	 165
 146	 178
 146	 186
 146	 187
 146	 195
 146	 198
 146	 215
 146	 222
 146	 235
 146	 236
 147	 167
 147	 168
 147	 172
 147	 201
 147	 203
 147	 211
 147	 215
 147	 229
 148	 150
 148	 158
 148	 177
 148	 191
 148	 201
 148	 215
 148	 219
 148	 220
 148	 225
 148	 233
 148	 239
 149	 160
 149	 168
 149	 174
 149	 186
 149	 192
 149	 198
 149	 213
 149	 227
 149	 234
 150	 157
 150	 187
 150	 198
 150	 215
 150	 218
 150	 235
 150	 236
 150	 237
 150	 243
 150	 247
 151	 158
 151	 171
 151	 194
 151	 201
 151	 203
 151	 229
 151	 235
 152	 153
 152	 176
 152	 183
 152	 193
 152	 195
 152	 217
 152	 241
 153	 167
 153	 173
 153	 179
 153	 191
 153	 194
 153	 197
 153	 201
 153	 205
 153	 213
 153	 220
 153	 235
 154	 158
 154	 160
 154	 193
 154	 195
 154	 201
 154	 219
 154	 232
 154	 233
 154	 243
 155	 160
 155	 197
 155	 206
 155	 208
 155	 214
 155	 227
 155	 234
 155	 242
 156	 163
 156	 166
 156	 169
 156	 170
 156	 177
 156	 189
 156	 191
 156	 211
 156	 248
 157	 177
 157	 178
 157	 179
 157	 180
 157	 188
 157	 191
 157	 226
 157	 227
 157	 235
 157	 239
 158	 159
 158	 174
 158	 178
 158	 179
 158	 180
 158	 182
 158	 193
 158	 197
 158	 205
 158	 208
 158	 218
 158	 229
 158	 242
 159	 181
 159	 212
 159	 219
 159	 221
 160	 181
 160	 192
 160	 194
 160	 207
 160	 211
 160	 223
 160	 232
 160	 237
 160	 245
 161	 168
 161	 203
 161	 212
 161	 236
 161	 242
 161	 245
 162	 168
 162	 199
 162	 201
 162	 203
 162	 210
 162	 213
 162	 227
 163	 167
 163	 169
 163	 173
 163	 174
 163	 178
 163	 194
 163	 218
 163	 222
 163	 224
 163	 231
 163	 239
 164	 165
 164	 177
 164	 205
 164	 227
 164	 228
 164	 238
 165	 170
 165	 182
 165	 184
 165	 192
 165	 205
 165	 218
 165	 229
 165	 237
 165	 238
 166	 175
 166	 208
 166	 215
 166	 224
 166	 227
 166	 228
 166	 235
 167	 173
 167	 194
 167	 200
 167	 202
 167	 208
 167	 220
 167	 240
 167	 242
 168	 198
 168	 207
 168	 208
 169	 171
 169	 177
 169	 178
 169	 179
 169	 189
 169	 206
 169	 207
 169	 211
 169	 216
 169	 221
 169	 234
 169	 240
 169	 243
 170	 181
 170	 182
 170	 187
 170	 193
 170	 205
 170	 213
 170	 232
 171	 180
 171	 192
 171	 195
 171	 197
 171	 210
 171	 213
 171	 227
 171	 242
 171	 243
 171	 246
 172	 189
 172	 190
 172	 197
 172	 200
 172	 205
 172	 206
 172	 216
 172	 244
 173	 179
 173	 214
 173	 225
 173	 235
 173	 243
 174	 195
 174	 202
 174	 215
 174	 232
 174	 235
 174	 236
 175	 182
 175	 202
 175	 209
 176	 185
 176	 187
 176	 189
 176	 202
 176	 221
 176	 224
 176	 233
 176	 247
 177	 182
 177	 188
 177	 191
 177	 192
 177	 200
 177	 205
 177	 222
 177	 237
 177	 240
 177	 246
 178	 208
 178	 224
 178	 226
 179	 182
 179	 183
 179	 184
 179	 197
 179	 200
 179	 206
 179	 214
 179	 237
 180	 205
 180	 212
 180	 226
 180	 229
 180	 230
 180	 244
 181	 182
 181	 185
 181	 191
 181	 203
 181	 209
 181	 215
 181	 217
 181	 221
 181	 230
 182	 186
 182	 196
 182	 197
 182	 202
 182	 203
 182	 211
 182	 214
 182	 228
 182	 229
 182	 238
 182	 244
 183	 189
 183	 196
 183	 207
 183	 211
 183	 230
 183	 237
 183	 242
 184	 209
 184	 216
 184	 220
 184	 223
 184	 226
 184	 238
 185	 192
 185	 217
 185	 240
 185	 241
 186	 191
 186	 204
 186	 207
 186	 209
 186	 224
 186	 226
 186	 228
 186	 229
 186	 231
 186	 236
 186	 244
 187	 198
 187	 220
 187	 232
 187	 237
 188	 195
 188	 197
 188	 200
 188	 205
 188	 217
 188	 220
 188	 221
 188	 222
 188	 223
 189	 205
 189	 210
 189	 211
 189	 231
 190	 201
 190	 215
 190	 220
 190	 232
 190	 234
 190	 244
 191	 192
 191	 198
 191	 201
 191	 204
 191	 223
 191	 233
 191	 247
 192	 193
 192	 210
 192	 235
 192	 239
 192	 242
 192	 245
 192	 247
 193	 208
 193	 218
 193	 233
 193	 235
 193	 248
 194	 198
 194	 207
 194	 248
 195	 197
 195	 206
 195	 209
 195	 225
 195	 234
 196	 198
 196	 205
 196	 207
 196	 224
 196	 233
 197	 215
 197	 241
 197	 247
 198	 206
 198	 207
 198	 221
 198	 243
 198	 247
 199	 214
 199	 220
 199	 224
 199	 230
 200	 218
 200	 241
 201	 222
 201	 227
 201	 228
 201	 231
 201	 243
 201	 246
 201	 247
 201	 248
 202	 207
 202	 218
 202	 225
 203	 205
 203	 213
 203	 214
 203	 216
 203	 217
 203	 218
 203	 225
 203	 237
 204	 206
 204	 217
 204	 218
 204	 240
 204	 246
 205	 210
 205	 247
 206	 217
 206	 219
 206	 221
 206	 233
 206	 237
 207	 210
 207	 214
 207	 217
 207	 245
 208	 219
 208	 224
 208	 226
 208	 234
 208	 241
 208	 244
 209	 211
 209	 224
 209	 234
 210	 213
 210	 218
 210	 235
 211	 222
 211	 232
 211	 240
 211	 243
 212	 221
 212	 229
 212	 246
 213	 233
 214	 217
 214	 240
 215	 225
 215	 226
 216	 218
 216	 219
 216	 239
 216	 246
 216	 247
 217	 243
 217	 244
 217	 248
 218	 222
 218	 237
 218	 241
 219	 233
 220	 227
 220	 235
 220	 244
 220	 246
 220	 247
 222	 229
 222	 230
 222	 233
 222	 238
 223	 224
 223	 229
 223	 246
 224	 231
 224	 235
 224	 245
 224	 247
 226	 229
 226	 230
 226	 235
 226	 241
 227	 234
 227	 244
 228	 232
 228	 236
 229	 231
 229	 242
 230	 231
 230	 232
 230	 236
 230	 247
 230	 248
 231	 234
 231	 236
 231	 237
 231	 240
 232	 234
 232	 235
 233	 245
 234	 238
 239	 241
 240	 243
 241	 242
 244	 245
 244	 246
 244	 248
;
